c Random 8-CNF over 30 variables and 60 clauses
c Generated with `cnfgen`
c (C) 2012-2016 Massimo Lauria <lauria.massimo@gmail.com>
c https://massimolauria.github.io/cnfgen
c
c COMMAND LINE: cnfgen --output tmp-8-30-60.dimacs --output-format dimacs randkcnf 8 30 60
c
c sdimacs generated by gen-sdimacs
c
p cnf 30 60
r 0.5 1 2 3 4 5 6 7 8 9 10 11 12 13 14 15 0
e  16 17 18 19 20 21 22 23 24 25 26 27 28 29 30 0
-1 4 10 12 16 19 28 -29 0
-2 8 -10 -12 13 15 20 24 0
-3 9 -19 23 -26 -27 28 -30 0
6 -10 13 -15 -23 24 -26 -27 0
-1 3 -6 10 19 -20 24 -27 0
-2 -4 6 7 -10 -12 -22 -28 0
1 3 -5 -10 -13 16 18 30 0
1 5 -11 -12 13 -20 22 28 0
1 6 -11 13 15 -17 20 28 0
5 -6 -10 -14 -15 16 -17 -24 0
10 -16 -17 -20 23 -26 27 29 0
-3 4 5 6 7 10 17 26 0
-3 -5 8 -16 21 24 -25 28 0
1 -2 -4 10 -16 -17 -20 -22 0
-6 -10 -13 16 24 26 27 -28 0
-10 11 12 -14 -17 -24 -25 -29 0
-3 -9 -10 11 -17 -19 23 -29 0
-4 6 7 -10 14 -16 -18 -19 0
-4 -6 -10 11 15 -22 -25 -26 0
2 -3 -4 14 16 -22 26 -27 0
-3 -18 -19 -20 -22 -28 -29 -30 0
-5 7 9 -13 15 19 -20 21 0
3 -4 10 15 16 20 21 -29 0
-5 -8 15 16 24 -25 -26 30 0
-2 -8 11 18 -21 -22 -23 -25 0
2 -10 -11 16 17 -18 21 27 0
-6 10 11 -13 15 23 26 29 0
-4 6 -11 -14 -21 22 29 -30 0
-1 -3 11 16 18 20 -21 -23 0
-1 -5 8 14 18 -22 25 30 0
2 10 -14 -20 -22 23 25 -28 0
1 -2 4 -6 16 -22 27 -30 0
11 12 15 16 -17 -25 -27 30 0
1 -9 12 14 -17 -18 -19 -30 0
-4 7 12 13 -17 25 -26 -29 0
2 -3 -4 7 -9 23 -27 -28 0
-1 6 -7 9 -11 19 -27 -30 0
2 -4 -8 9 -15 16 -22 -23 0
2 4 -5 9 10 -23 -24 26 0
-1 -5 9 17 -19 -24 -25 29 0
2 12 13 14 20 22 -26 28 0
-6 7 13 14 -16 18 -20 22 0
4 -6 -11 16 19 -25 -27 -29 0
-5 8 -12 -15 19 21 24 -25 0
1 -2 -15 19 -21 -22 27 28 0
-3 7 -10 13 -16 17 -18 25 0
5 8 -12 22 -24 -26 -29 -30 0
-3 6 7 8 -9 -18 -26 29 0
7 8 9 11 -17 20 -22 -28 0
2 -6 -7 13 -14 16 -26 27 0
-1 -4 -5 -6 9 11 -18 -26 0
-4 8 13 -20 -21 23 -28 -30 0
5 10 -16 -17 -21 -23 -28 29 0
3 4 -5 -10 12 -14 25 26 0
1 6 8 -11 -14 -20 -24 -28 0
4 6 7 13 14 -15 -19 28 0
3 5 -6 -7 -8 17 29 30 0
2 6 -17 -19 -21 -24 25 -30 0
-2 -9 14 21 23 -26 28 -30 0
-3 -4 11 14 19 21 25 -30 0
